3	0	2	1	0	0	0	0	0	4
5	1	0	2	3	0	0	4	0	0
0	0	1	0	2	3	0	0	4	0
3	0	1	0	0	0	2	0	0	0
0	1	0	2	4	0	0	3	0	0
0	5	1	0	2	3	0	0	4	0
0	4	0	1	0	0	2	0	0	3
1	0	2	0	0	0	0	0	0	3
0	4	0	2	3	0	0	1	0	0
0	0	1	0	0	4	3	0	0	2
0	3	0	0	1	0	4	0	2	5
2	0	3	0	6	0	1	5	4	0
0	5	0	0	0	1	0	2	4	3
5	3	1	0	0	2	0	6	4	0
1	0	2	0	3	6	4	5	0	0
0	2	0	4	0	1	0	3	0	0
5	0	1	3	2	0	0	4	0	0
0	0	2	0	0	4	1	0	5	3
6	0	0	1	2	3	5	7	0	4
0	5	0	3	0	0	2	0	4	1
